c SAT Generator for power-law distributed variable frequencies
c -g u -v 20 -c 91 -k 3 -p 2.750000 -b 3.200000 -f /home/schmidt/Devel/ni-kop-sat/data/ensemble/ruf20-91/ruf20-91-309 -u 1 -U 1 -s 2775599548
p cnf 20 91
2 -19 20 0
-2 -4 9 0
-1 -4 -7 0
8 19 -20 0
-4 11 15 0
-2 -12 -14 0
-4 -17 18 0
7 -14 16 0
3 11 12 0
-4 -12 18 0
-3 -4 -5 0
-1 -3 -7 0
1 5 19 0
-3 -9 -15 0
6 12 18 0
3 5 20 0
-5 9 19 0
9 -10 -19 0
5 12 14 0
-3 13 15 0
11 12 14 0
8 12 -17 0
7 19 20 0
-7 -15 -20 0
4 -13 -16 0
2 -9 -20 0
-13 17 -20 0
2 -7 11 0
-3 -17 -18 0
-7 -13 18 0
-6 -7 9 0
-3 -10 18 0
4 10 13 0
4 -5 -14 0
-12 17 -19 0
-3 7 18 0
2 -7 17 0
8 -11 -14 0
-3 8 11 0
-5 15 18 0
-1 7 -16 0
-3 -10 15 0
-4 -5 -17 0
8 -15 18 0
9 -13 17 0
-1 -12 -19 0
3 6 13 0
-1 -2 20 0
-2 9 -19 0
-9 12 -14 0
5 -14 20 0
2 9 19 0
7 -17 -20 0
-7 11 -15 0
-8 -18 -19 0
-3 -13 -15 0
7 9 18 0
-3 -8 11 0
-10 16 -19 0
4 -7 14 0
-3 10 17 0
-4 7 -11 0
-8 14 -15 0
1 12 -16 0
-5 19 20 0
-2 -8 -9 0
5 -10 -16 0
-3 4 -18 0
5 10 -17 0
2 -5 20 0
5 8 19 0
3 -8 -17 0
5 -7 8 0
-2 -10 16 0
-8 -16 18 0
-8 -12 -14 0
-1 13 14 0
3 4 -11 0
1 13 -20 0
5 -6 15 0
-8 17 19 0
-10 -14 16 0
3 14 19 0
-7 -13 -19 0
-1 -4 5 0
3 -12 20 0
3 13 19 0
6 -18 -19 0
3 5 13 0
-13 -17 -20 0
4 13 15 0
